Clp0006I 0  Obj 0 Primal inf 399.99996 (400) Dual inf 1099695 (40000)
Clp0006I 200  Obj -25519 Primal inf 4003 (379)
Clp0006I 305  Obj -10000 Primal inf 1515 (354)
Clp0006I 432  Obj -10000 Primal inf 1747 (342)
Clp0006I 500  Obj -10000 Primal inf 1779 (337)
Clp0006I 558  Obj -10000 Primal inf 1027 (328)
Clp0006I 644  Obj -10000 Primal inf 1431 (319)
Clp0006I 742  Obj -10000 Primal inf 805.99997 (289)
Clp0006I 830  Obj -9998 Primal inf 658.99997 (269)
Clp0006I 912  Obj -9998 Primal inf 639.99998 (245)
Clp0006I 988  Obj -9998 Primal inf 270.99998 (197)
Clp0006I 1083  Obj -9997 Primal inf 160.99999 (78)
Clp0006I 1168  Obj -9995 Primal inf 134.99999 (63)
Clp0006I 1246  Obj -9995 Primal inf 16.999998 (16)
Clp0006I 1265  Obj -9995
Clp0000I Optimal - objective value -9995
Clp0000I Optimal - objective value -9995
Node 0 depth 0 unsatisfied 0 sum 0 obj -9995 guess -9995 branching on -1
Clp0000I Optimal - objective value -9995
Cbc0004I Integer solution of -9995 found after 0 iterations and 0 nodes (0.19 seconds)
Cbc0001I Search completed - best objective -9995, took 0 iterations and 0 nodes (0.21 seconds)
Cbc0035I Maximum depth 0, 0 variables fixed on reduced cost
Clp0000I Optimal - objective value -9995
Clp0000I Optimal - objective value -9995
x_125 = 1
x_247 = 1
x_402 = 1
x_671 = 1
x_801 = 1
x_1035 = 1
x_1333 = 1
x_1590 = 1
x_1754 = 1
x_1880 = 1
x_2119 = 1
x_2216 = 1
x_2441 = 1
x_2772 = 1
x_2913 = 1
x_3112 = 1
x_3220 = 1
x_3577 = 1
x_3704 = 1
x_3965 = 1
x_4099 = 1
x_4311 = 1
x_4473 = 1
x_4666 = 1
x_4949 = 1
x_5046 = 1
x_5378 = 1
x_5575 = 1
x_5696 = 1
x_5825 = 1
x_6087 = 1
x_6248 = 1
x_6429 = 1
x_6612 = 1
x_6903 = 1
x_7129 = 1
x_7376 = 1
x_7567 = 1
x_7628 = 1
x_7858 = 1
x_8007 = 1
x_8345 = 1
x_8521 = 1
x_8692 = 1
x_8989 = 1
x_9132 = 1
x_9297 = 1
x_9468 = 1
x_9705 = 1
x_9863 = 1
x_10077 = 1
x_10283 = 1
x_10535 = 1
x_10662 = 1
x_10906 = 1
x_11123 = 1
x_11230 = 1
x_11455 = 1
x_11764 = 1
x_11875 = 1
x_12197 = 1
x_12204 = 1
x_12593 = 1
x_12667 = 1
x_12859 = 1
x_13053 = 1
x_13339 = 1
x_13451 = 1
x_13750 = 1
x_13808 = 1
x_14195 = 1
x_14374 = 1
x_14514 = 1
x_14676 = 1
x_14886 = 1
x_15089 = 1
x_15307 = 1
x_15493 = 1
x_15698 = 1
x_15888 = 1
x_16168 = 1
x_16327 = 1
x_16434 = 1
x_16645 = 1
x_16940 = 1
x_17064 = 1
x_17300 = 1
x_17406 = 1
x_17798 = 1
x_17941 = 1
x_18022 = 1
x_18348 = 1
x_18553 = 1
x_18685 = 1
x_18936 = 1
x_19095 = 1
x_19357 = 1
x_19410 = 1
x_19744 = 1
x_19857 = 1
x_20183 = 1
x_20215 = 1
x_20561 = 1
x_20639 = 1
x_20850 = 1
x_21044 = 1
x_21226 = 1
x_21531 = 1
x_21672 = 1
x_21837 = 1
x_22038 = 1
x_22380 = 1
x_22452 = 1
x_22710 = 1
x_22832 = 1
x_23017 = 1
x_23224 = 1
x_23423 = 1
x_23758 = 1
x_23805 = 1
x_24040 = 1
x_24278 = 1
x_24442 = 1
x_24752 = 1
x_24874 = 1
x_25179 = 1
x_25360 = 1
x_25528 = 1
x_25709 = 1
x_25813 = 1
x_26162 = 1
x_26324 = 1
x_26591 = 1
x_26681 = 1
x_26918 = 1
x_27102 = 1
x_27320 = 1
x_27515 = 1
x_27690 = 1
x_27860 = 1
x_28065 = 1
x_28254 = 1
x_28484 = 1
x_28755 = 1
x_28956 = 1
x_29199 = 1
x_29316 = 1
x_29538 = 1
x_29679 = 1
x_29988 = 1
x_30151 = 1
x_30326 = 1
x_30573 = 1
x_30621 = 1
x_30970 = 1
x_31031 = 1
x_31301 = 1
x_31534 = 1
x_31636 = 1
x_31809 = 1
x_32019 = 1
x_32387 = 1
x_32433 = 1
x_32785 = 1
x_32947 = 1
x_33117 = 1
x_33386 = 1
x_33470 = 1
x_33763 = 1
x_33937 = 1
x_34011 = 1
x_34282 = 1
x_34546 = 1
x_34722 = 1
x_34861 = 1
x_35003 = 1
x_35342 = 1
x_35592 = 1
x_35771 = 1
x_35908 = 1
x_36094 = 1
x_36249 = 1
x_36559 = 1
x_36743 = 1
x_36994 = 1
x_37014 = 1
x_37218 = 1
x_37581 = 1
x_37796 = 1
x_37843 = 1
x_38027 = 1
x_38384 = 1
x_38456 = 1
x_38669 = 1
x_38982 = 1
x_39166 = 1
x_39369 = 1
x_39530 = 1
x_39691 = 1
x_39800 = 1
real 0m0,411s user 0m0,353s sys 0m0,057s
